
Welcome to IBM(R) ILOG(R) CPLEX(R) Interactive Optimizer 22.1.1.0
  with Simplex, Mixed Integer & Barrier Optimizers
5725-A06 5725-A29 5724-Y48 5724-Y49 5724-Y54 5724-Y55 5655-Y21
Copyright IBM Corp. 1988, 2022.  All Rights Reserved.

Type 'help' for a list of available commands.
Type 'help' followed by a command name for more
information on commands.

CPLEX> Problem '/tmp/6493f0c5310c4dc1bc9c927e40b2416b-pulp.lp' read.
Read time = 0.02 sec. (2.37 ticks)
CPLEX> New value for time limit in seconds: 900
CPLEX> Version identifier: 22.1.1.0 | 2022-11-28 | 9160aff4d
CPXPARAM_TimeLimit                               900
Tried aggregator 5 times.
MIP Presolve eliminated 7851 rows and 1405 columns.
MIP Presolve modified 22239 coefficients.
Aggregator did 92 substitutions.
Reduced MIP has 11152 rows, 2564 columns, and 45951 nonzeros.
Reduced MIP has 2377 binaries, 0 generals, 0 SOSs, and 0 indicators.
Presolve time = 0.07 sec. (100.39 ticks)
Found incumbent of value 1462.011000 after 0.07 sec. (109.12 ticks)
Probing fixed 9 vars, tightened 0 bounds.
Probing time = 0.01 sec. (4.81 ticks)
Tried aggregator 1 time.
Detecting symmetries...
MIP Presolve eliminated 2599 rows and 31 columns.
MIP Presolve modified 3622 coefficients.
Reduced MIP has 8553 rows, 2533 columns, and 38938 nonzeros.
Reduced MIP has 2367 binaries, 0 generals, 0 SOSs, and 0 indicators.
Presolve time = 0.03 sec. (52.90 ticks)
Probing time = 0.01 sec. (2.03 ticks)
Clique table members: 9062.
MIP emphasis: balance optimality and feasibility.
MIP search method: dynamic search.
Parallel mode: deterministic, using up to 32 threads.
Root relaxation solution time = 0.08 sec. (39.56 ticks)

        Nodes                                         Cuts/
   Node  Left     Objective  IInf  Best Integer    Best Bound    ItCnt     Gap

*     0+    0                         1462.0110        0.2090            99.99%
*     0+    0                           16.6110        0.2090            98.74%
      0     0        3.9888   222       16.6110        3.9888      323   75.99%
*     0+    0                           10.6100        3.9888            62.41%
      0     0        4.7369   298       10.6100       Cuts: 6      937   55.35%
      0     0        5.3960   295       10.6100       Cuts: 3     1299   49.14%
*     0+    0                           10.5100        5.3960            48.66%
*     0+    0                           10.4100        5.3960            48.16%
*     0+    0                           10.3100        5.3960            47.66%
      0     0  -1.00000e+75     0       10.3100        5.3960     1299   47.66%
*     0+    0                            9.5100        5.3960            43.26%
Detecting symmetries...
      0     2        5.3960   295        9.5100        5.3960     1299   43.26%
Elapsed time = 1.47 sec. (1161.86 ticks, tree = 0.02 MB, solutions = 7)
*   141+   28                            9.4100        5.4443            42.14%
    170    69        7.9510   230        9.4100        5.4443    14757   42.14%
*   372+   29                            9.3100        5.4443            41.52%
    733   345        8.0714   105        9.3100        5.4443    70916   41.52%
   1595   914        8.3380    86        9.3100        5.4443   138140   41.52%
   2477  1463        6.9309   114        9.3100        5.5065   206855   40.85%
   3609  2204        8.7372   148        9.3100        5.5096   273584   40.82%
   4950  3151        8.3161    42        9.3100        5.6303   366973   39.52%
   6141  3680        8.6172   135        9.3100        5.8676   420045   36.98%
   7384  4458        7.8283    67        9.3100        5.9884   501947   35.68%
   8152  5013        6.8637   235        9.3100        6.0432   559107   35.09%

Performing restart 1

Repeating presolve.
Tried aggregator 1 time.
MIP Presolve eliminated 1585 rows and 77 columns.
MIP Presolve modified 1166 coefficients.
Reduced MIP has 6968 rows, 2456 columns, and 34851 nonzeros.
Reduced MIP has 2367 binaries, 0 generals, 0 SOSs, and 0 indicators.
Presolve time = 0.02 sec. (26.56 ticks)
Tried aggregator 1 time.
MIP Presolve eliminated 620 rows and 56 columns.
MIP Presolve modified 154 coefficients.
Reduced MIP has 6348 rows, 2400 columns, and 33143 nonzeros.
Reduced MIP has 2367 binaries, 0 generals, 0 SOSs, and 0 indicators.
Presolve time = 0.02 sec. (24.88 ticks)
Tried aggregator 1 time.
MIP Presolve eliminated 257 rows and 33 columns.
Reduced MIP has 6091 rows, 2367 columns, and 32408 nonzeros.
Reduced MIP has 2367 binaries, 0 generals, 0 SOSs, and 0 indicators.
Presolve time = 0.02 sec. (30.15 ticks)
Represolve time = 0.08 sec. (101.45 ticks)
   8154     0        5.4473   238        9.3100       Cuts: 5   607536   31.92%
   8154     0        5.4942   289        9.3100       Cuts: 7   608237   31.92%
   8154     0        5.4996   270        9.3100       Cuts: 4   608682   31.92%
   8154     0        5.5050   291        9.3100       Cuts: 6   609143   31.92%
   8154     0        5.5079   286        9.3100       Cuts: 6   609511   31.92%
   8154     0        5.5092   281        9.3100       Cuts: 4   609660   31.92%
   8154     0        5.5143   254        9.3100       Cuts: 6   609978   31.92%
   8154     0        5.5227   251        9.3100       Cuts: 7   610291   31.92%
   8154     2        5.5227   238        9.3100        6.3386   610291   31.92%
Elapsed time = 8.35 sec. (9673.63 ticks, tree = 0.02 MB, solutions = 11)
   8157     2        9.1093   226        9.3100        6.3386   611594   31.92%
   8164     4        8.4767   273        9.3100        6.3386   612842   31.92%
   8178     4        9.2795   169        9.3100        6.3386   615086   31.92%
   8214    14        7.7578   248        9.3100        6.3386   626580   31.92%
   8603   135        8.7699   211        9.3100        6.3386   651948   31.92%
  10381   886        8.8074    41        9.3100        6.3386   719941   31.92%
  13440  2525        8.6791   118        9.3100        6.3386   789699   31.92%
  17867  5713        8.3027   175        9.3100        6.3386   930920   31.92%

Performing restart 2

Repeating presolve.
Tried aggregator 1 time.
MIP Presolve eliminated 114 rows and 42 columns.
Reduced MIP has 5977 rows, 2325 columns, and 31760 nonzeros.
Reduced MIP has 2325 binaries, 0 generals, 0 SOSs, and 0 indicators.
Presolve time = 0.02 sec. (23.90 ticks)
Tried aggregator 1 time.
Reduced MIP has 5977 rows, 2325 columns, and 31760 nonzeros.
Reduced MIP has 2325 binaries, 0 generals, 0 SOSs, and 0 indicators.
Presolve time = 0.02 sec. (29.27 ticks)
Represolve time = 0.10 sec. (92.68 ticks)
  19111     0        5.5372   235        9.3100       Cuts: 6  1020491   31.92%
  19111     0        5.5565   271        9.3100       Cuts: 5  1021033   31.92%
  19111     0        5.5680   227        9.3100       Cuts: 7  1021325   31.92%
  19111     0        5.5859   254        9.3100       Cuts: 6  1021627   31.92%
  19111     0        5.6015   206        9.3100       Cuts: 5  1021907   31.92%
  19111     0        5.6044   222        9.3100   LiftProj: 3  1022112   31.92%
  19111     0        5.6068   205        9.3100       Cuts: 5  1022311   31.92%
  19111     0        5.6118   290        9.3100       Cuts: 9  1022705   31.92%
  19111     0        5.6150   272        9.3100       Cuts: 3  1023062   31.92%
  19111     0        5.6171   264        9.3100       Cuts: 3  1023462   31.92%
  19111     0        5.6195   255        9.3100   ZeroHalf: 2  1023682   31.92%
  19111     2        5.6195   249        9.3100        6.3386  1023682   31.92%
  19355    81        cutoff              9.3100        6.3386  1044730   31.92%
Elapsed time = 22.66 sec. (28992.75 ticks, tree = 0.12 MB, solutions = 12)
  22104  1281        9.1950    50        9.3100        6.3386  1274078   31.92%
  25756  2812        9.3078   101        9.3100        7.3762  1585332   20.77%
  29631  2379        cutoff              9.3100        8.1227  1923992   12.75%

Clique cuts applied:  1
Cover cuts applied:  1
Zero-half cuts applied:  29
Lift and project cuts applied:  9
Gomory fractional cuts applied:  9

Root node processing (before b&c):
  Real time             =    1.40 sec. (1158.84 ticks)
Parallel b&c, 32 threads:
  Real time             =   25.07 sec. (31214.08 ticks)
  Sync time (average)   =    7.65 sec.
  Wait time (average)   =    0.10 sec.
                          ------------
Total (root+branch&cut) =   26.47 sec. (32372.92 ticks)

Solution pool: 12 solutions saved.

MIP - Integer optimal solution:  Objective =  9.3100000000e+00
Solution time =   26.50 sec.  Iterations = 2044248  Nodes = 32818
Deterministic time = 32372.93 ticks  (1221.73 ticks/sec)

CPLEX> MILP problem relaxed to LP with fixed integer variables using
incumbent solution.
CPLEX> Version identifier: 22.1.1.0 | 2022-11-28 | 9160aff4d
CPXPARAM_TimeLimit                               900
Parallel mode: deterministic, using up to 32 threads for concurrent optimization:
 * Starting dual Simplex on 1 thread...
 * Starting Barrier on 30 threads...
 * Starting primal Simplex on 1 thread...
Tried aggregator 1 time.
LP Presolve eliminated 19095 rows and 4061 columns.
All rows and columns eliminated.
Presolve time = 0.00 sec. (8.50 ticks)

Dual simplex solved model.


Dual simplex - Optimal:  Objective =  9.3100000000e+00
Solution time =    0.02 sec.  Iterations = 0 (0)
Deterministic time = 17.58 ticks  (753.89 ticks/sec)

CPLEX> Solution written to file '/tmp/6493f0c5310c4dc1bc9c927e40b2416b-pulp.sol'.
CPLEX> Root classes: ['36']
Status: Optimal
Solved x values:
['0.0', '1.2', '2.2', '4.2', '6.2', '10.2', '12.2', '15.11', '16.2', '18.1', '19.1', '20.2', '32.13', '33.1', '34.2', '35.2', '36.2', '74.0', '116.5', '117.2', '118.2', '120.4', '121.2', '122.2', '185.2', '186.18', '211.2', '212.2', '682.2', '1485.2', '1486.2']
